20170719 31 0 0 0
20160519 64 0 0 0
20150716 28 0 0 0
20140717 24 0 0 0
20130719 45 0 0 0
20120711 70 2000 0 0
20110708 60 2000 0 0
20100716 150 0 0 0
20060711 0 3000 0 0
20020626 50 0 0 0
20001024 0 4000 0 0
19990702 100 0 0 0
